SCIP Status        : solving was interrupted [time limit reached]
Total Time         :    3600.00
  solving          :    3600.00
  presolving       :       0.23 (included in solving)
  reading          :       0.00
  copying          :       1.59 (56 #copies) (minimal 0.00, maximal 0.06, average 0.03)
Original Problem   :
  Problem name     : bbbenchmark/g05_60.2.cut
  Variables        : 61 (60 binary, 0 integer, 0 implicit integer, 1 continuous)
  Constraints      : 1 initial, 1 maximal
  Objective        : minimize, 1 non-zeros (abs.min = 1, abs.max = 1)
Presolved Problem  :
  Problem name     : t_bbbenchmark/g05_60.2.cut
  Variables        : 946 (60 binary, 0 integer, 885 implicit integer, 1 continuous)
  Constraints      : 886 initial, 10887 maximal
  Objective        : minimize, 1 non-zeros (abs.min = 1, abs.max = 1)
  Nonzeros         : 3601 constraint, 122 clique table
Presolvers         :   ExecTime  SetupTime  Calls  FixedVars   AggrVars   ChgTypes  ChgBounds   AddHoles    DelCons    AddCons   ChgSides   ChgCoefs
  boundshift       :       0.00       0.00      0          0          0          0          0          0          0          0          0          0
  convertinttobin  :       0.00       0.00      0          0          0          0          0          0          0          0          0          0
  domcol           :       0.00       0.00      1          0          0          0          0          0          0          0          0          0
  dualagg          :       0.00       0.00      0          0          0          0          0          0          0          0          0          0
  dualcomp         :       0.00       0.00      1          0          0          0          0          0          0          0          0          0
  dualinfer        :       0.00       0.00      0          0          0          0          0          0          0          0          0          0
  dualsparsify     :       0.00       0.00      1          0          0          0          0          0          0          0          0          0
  gateextraction   :       0.00       0.00      0          0          0          0          0          0          0          0          0          0
  implics          :       0.00       0.00      2          0          0          0          0          0          0          0          0          0
  inttobinary      :       0.00       0.00      0          0          0          0          0          0          0          0          0          0
  qpkktref         :       0.00       0.00      0          0          0          0          0          0          0          0          0          0
  redvub           :       0.00       0.00      0          0          0          0          0          0          0          0          0          0
  sparsify         :       0.00       0.00      1          0          0          0          0          0          0          0          0          0
  stuffing         :       0.00       0.00      0          0          0          0          0          0          0          0          0          0
  trivial          :       0.00       0.00      4          0          0          0          0          0          0          0          0          0
  tworowbnd        :       0.00       0.00      0          0          0          0          0          0          0          0          0          0
  dualfix          :       0.00       0.00      4          0          0          0          0          0          0          0          0          0
  genvbounds       :       0.00       0.00      0          0          0          0          0          0          0          0          0          0
  probing          :       0.12       0.00      1          0          0          0          0          0          0          0          0          0
  pseudoobj        :       0.00       0.00      1          0          0          0          1          0          0          0          0          0
  symmetry         :       0.00       0.00      0          0          0          0          0          0          0          0          0          0
  vbounds          :       0.00       0.00      1          0          0          0          0          0          0          0          0          0
  and              :       0.01       0.01      2          0          0          0          0          0          0          0          0          0
  linear           :       0.00       0.00      2          0          0          0          0          0          0          0          0          0
  logicor          :       0.00       0.00      0          0          0          0          0          0          0          0          0          0
  nonlinear        :       0.09       0.00      5          0          0          0          1          0          0        885          0          0
  benders          :       0.00       0.00      0          0          0          0          0          0          0          0          0          0
  components       :       0.00       0.00      1          0          0          0          0          0          0          0          0          0
  root node        :          -          -      -          0          -          -         44          -          -          -          -          -
Constraints        :     Number  MaxNumber  #Separate #Propagate    #EnfoLP    #EnfoRelax  #EnfoPS    #Check   #ResProp    Cutoffs    DomReds       Cuts    Applied      Conss   Children
  benderslp        :          0          0          0          0     112533          0          0      20502          0          0          0          0          0          0          0
  integral         :          0          0          0          0     112533          0          0      20502          0          3       8470          0          0       3771     219528
  and              :        885        885     129230     725298         11          0          0         52     143693         23    4192999       2966       2856          0          0
  linear           :          1+         3         64     725275         11          0          0         50          0          1          0          0          0          0          0
  logicor          :          0+     10001          0     187283          0          0          0          0        712        756        139          0          0          0          0
  benders          :          0          0          0          0         11          0          0         53          0          0          0          0          0          0          0
  countsols        :          0          0          0          0         11          0          0         53          0          0          0          0          0          0          0
  components       :          0          0          0          0          0          0          0          0          0          0          0          0          0          0          0
Constraint Timings :  TotalTime  SetupTime   Separate  Propagate     EnfoLP     EnfoPS     EnfoRelax   Check    ResProp    SB-Prop
  benderslp        :       0.17       0.00       0.00       0.00       0.15       0.00       0.00       0.02       0.00       0.00
  integral         :      41.97       0.00       0.00       0.00      41.93       0.00       0.00       0.04       0.00       0.00
  and              :      59.81       0.01      35.45      23.82       0.00       0.00       0.00       0.00       0.08       0.45
  linear           :       0.51       0.00       0.01       0.50       0.00       0.00       0.00       0.00       0.00       0.00
  logicor          :      26.62       0.00       0.00      26.55       0.00       0.00       0.00       0.00       0.00       0.07
  benders          :       0.00       0.00       0.00       0.00       0.00       0.00       0.00       0.00       0.00       0.00
  countsols        :       0.00       0.00       0.00       0.00       0.00       0.00       0.00       0.00       0.00       0.00
  components       :       0.31       0.00       0.00       0.30       0.00       0.00       0.00       0.00       0.00       0.01
Propagators        : #Propagate   #ResProp    Cutoffs    DomReds
  dualfix          :          4          0          0          0
  genvbounds       :          0          0          0          0
  nlobbt           :          0          0          0          0
  obbt             :          0          0          0          0
  probing          :          0          0          0          0
  pseudoobj        :     580089          0          0         44
  redcost          :     278161          0          0     567564
  rootredcost      :         32          0          0          0
  symmetry         :          0          0          0          0
  vbounds          :      50861          0          0          0
Propagator Timings :  TotalTime  SetupTime   Presolve  Propagate    ResProp    SB-Prop
  dualfix          :       0.00       0.00       0.00       0.00       0.00       0.00
  genvbounds       :       0.52       0.00       0.00       0.52       0.00       0.00
  nlobbt           :       0.00       0.00       0.00       0.00       0.00       0.00
  obbt             :       0.00       0.00       0.00       0.00       0.00       0.00
  probing          :       0.12       0.00       0.12       0.00       0.00       0.00
  pseudoobj        :       0.82       0.00       0.00       0.81       0.00       0.01
  redcost          :       8.60       0.00       0.00       8.60       0.00       0.00
  rootredcost      :       0.54       0.00       0.00       0.54       0.00       0.00
  symmetry         :       0.35       0.00       0.00       0.35       0.00       0.00
  vbounds          :       0.44       0.00       0.00       0.44       0.00       0.00
Conflict Analysis  :       Time      Calls    Success    DomReds  Conflicts   Literals    Reconvs ReconvLits   Dualrays   Nonzeros   LP Iters   (pool size: [10000,10000])
  propagation      :       0.00        779        539          -        648       28.4          0        0.0          -          -          -
  infeasible LP    :       0.00          0          0          -          0        0.0          0        0.0          3       44.3          0
  bound exceed. LP :      17.64      14621      10494          -      63464       35.6          6       22.8          0        0.0      79194
  strong branching :       0.00          0          0          -          0        0.0          0        0.0          -          -          0
  pseudo solution  :       0.00          0          0          -          0        0.0          0        0.0          -          -          -
  applied globally :       0.30          -          -          0      29857       35.1          -          -          3          -          -
  applied locally  :          -          -          -          0          0        0.0          -          -          0          -          -
Separators         :   ExecTime  SetupTime      Calls  RootCalls    Cutoffs    DomReds  FoundCuts ViaPoolAdd  DirectAdd    Applied ViaPoolApp  DirectApp      Conss
  cut pool         :       2.17          -      28469         90          -          -      23067     388030          -          -          -          -          -    (maximal pool size:       1381)
  aggregation      :     156.77       0.00       4457         64          0          0          6          2          0          0          0          0          0
  > cmir           :          -          -          -          -          -          -          -          2          0          0          0          0          -
  > flowcover      :          -          -          -          -          -          -          -          0          0          0          0          0          -
  > knapsackcover  :          -          -          -          -          -          -          -          0          0          0          0          0          -
  cgmip            :       0.00       0.00          0          0          0          0          0          0          0          0          0          0          0
  clique           :       0.00       0.00         64         64          0          0          0          0          0          0          0          0          0
  closecuts        :       0.00       0.00          0          0          0          0          0          0          0          0          0          0          0
  convexproj       :       0.00       0.00          0          0          0          0          0          0          0          0          0          0          0
  disjunctive      :       0.00       0.00          0          0          0          0          0          0          0          0          0          0          0
  eccuts           :       0.00       0.00          0          0          0          0          0          0          0          0          0          0          0
  gauge            :       0.00       0.00          0          0          0          0          0          0          0          0          0          0          0
  gomory           :       0.00       0.00          0          0          0          0          0          0          0          0          0          0          0
  > gomorymi       :          -          -          -          -          -          -          -          0          0          0          0          0          -
  > strongcg       :          -          -          -          -          -          -          -          0          0          0          0          0          -
  impliedbounds    :       0.20       0.00       4457         64          0          0          0          0          0          0          0          0          0
  interlattice     :       0.00       0.00          0          0          0          0          0          0          0          0          0          0          0
  interminor       :       0.00       0.00          0          0          0          0          0          0          0          0          0          0          0
  intersub         :       0.17       0.00         30         30          0          0         30          0         30         30          0         30          0
  intobj           :       0.00       0.00          0          0          0          0          0          0          0          0          0          0          0
  mcf              :       0.00       0.00          1          1          0          0          0          0          0          0          0          0          0
  minor            :       0.00       0.00          0          0          0          0          0          0          0          0          0          0          0
  mixing           :       0.00       0.00       4457         64          0          0          0          0          0          0          0          0          0
  oddcycle         :       0.00       0.00          0          0          0          0          0          0          0          0          0          0          0
  rapidlearning    :       0.03       0.00          0          0          0          0          0          0          0          0          0          0          0
  rlt              :       0.00       0.00         10         10          0          0          0          0          0          0          0          0          0
  zerohalf         :      18.95       0.00       3650         20          0          0      23061     388028          0      83634      83634          0          0
Cutselectors       :   ExecTime  SetupTime      Calls  RootCalls   Selected     Forced   Filtered  RootSelec   RootForc   RootFilt 
  hybrid           :       0.28       0.00      18828         63      86520          0     304506        210          0         18
Pricers            :   ExecTime  SetupTime      Calls       Vars
  problem variables:       0.00          -          0          0
Branching Rules    :   ExecTime  SetupTime   BranchLP  BranchExt   BranchPS    Cutoffs    DomReds       Cuts      Conss   Children
  allfullstrong    :       0.00       0.00          0          0          0          0          0          0          0          0
  cloud            :       0.00       0.00          0          0          0          0          0          0          0          0
  distribution     :       0.00       0.00          0          0          0          0          0          0          0          0
  fullstrong       :       0.00       0.00          0          0          0          0          0          0          0          0
  inference        :       0.00       0.00          0          0          0          0          0          0          0          0
  leastinf         :       0.00       0.00          0          0          0          0          0          0          0          0
  lookahead        :       0.00       0.00          0          0          0          0          0          0          0          0
  mostinf          :       0.00       0.00          0          0          0          0          0          0          0          0
  multaggr         :       0.00       0.00          0          0          0          0          0          0          0          0
  nodereopt        :       0.00       0.00          0          0          0          0          0          0          0          0
  pscost           :       0.00       0.00          0          0          0          0          0          0          0          0
  random           :       0.00       0.00          0          0          0          0          0          0          0          0
  relpscost        :      41.63       0.00     112522          0          0          3       8470          0       3846     219528
  vanillafullstrong:       0.00       0.00          0          0          0          0          0          0          0          0
Primal Heuristics  :   ExecTime  SetupTime      Calls      Found       Best
  LP solutions     :       0.02          -          -         11         11
  relax solutions  :       0.00          -          -          0          0
  pseudo solutions :       0.00          -          -          0          0
  strong branching :       0.03          -          -          5          5
  actconsdiving    :       0.00       0.00          0          0          0
  adaptivediving   :       2.47       0.00        107          0          0
  alns             :       5.50       0.00         40         12          8
  bound            :       0.00       0.00          0          0          0
  clique           :       0.01       0.00          1          0          0
  coefdiving       :       0.00       0.00          0          0          0
  completesol      :       0.00       0.00          0          0          0
  conflictdiving   :      10.59       0.00        593          2          2
  crossover        :       0.11       0.00          2          1          1
  dins             :       0.00       0.00          0          0          0
  distributiondivin:      28.64       0.00        594          0          0
  dps              :       0.00       0.00          0          0          0
  dualval          :       0.00       0.00          0          0          0
  farkasdiving     :       0.02       0.00          0          0          0
  feaspump         :       0.01       0.00          0          0          0
  fixandinfer      :       0.00       0.00          0          0          0
  fracdiving       :      17.94       0.00        594          0          0
  gins             :       0.01       0.00          0          0          0
  guideddiving     :      15.46       0.00        594          2          2
  indicator        :       0.11       0.00          0          0          0
  indicatordiving  :       0.00       0.00          0          0          0
  intdiving        :       0.00       0.00          0          0          0
  intshifting      :       0.09       0.00         29          0          0
  linesearchdiving :      14.60       0.00        593          0          0
  localbranching   :       0.00       0.00          0          0          0
  locks            :       0.01       0.00          1          0          0
  lpface           :       0.12       0.00          0          0          0
  mpec             :       1.20       0.00          1          0          0
  multistart       :       0.00       0.00          0          0          0
  mutation         :       0.00       0.00          0          0          0
  nlpdiving        :       2.67       0.00         10          0          0
  objpscostdiving  :      27.25       0.00        109         10          1
  octane           :       0.00       0.00          0          0          0
  ofins            :       0.12       0.00          0          0          0
  oneopt           :       0.08       0.00         42          0          0
  padm             :       0.00       0.00          0          0          0
  proximity        :       0.00       0.00          0          0          0
  pscostdiving     :      16.98       0.00        593          3          3
  randrounding     :       1.00       0.00      20445          0          0
  rens             :       0.00       0.00          0          0          0
  reoptsols        :       0.00       0.00          0          0          0
  repair           :       0.00       0.00          0          0          0
  rins             :       4.77       0.00         16          0          0
  rootsoldiving    :      13.92       0.00         51          3          0
  rounding         :       0.70       0.00       5048          0          0
  shiftandpropagate:       0.00       0.00          0          0          0
  shifting         :      34.70       0.00      18071          9          9
  simplerounding   :       0.14       0.00          0          0          0
  subnlp           :      91.73       0.00          0          0          0
  trivial          :       0.01       0.00          2          2          2
  trivialnegation  :       0.00       0.00          0          0          0
  trustregion      :       0.00       0.00          0          0          0
  trysol           :       0.16       0.00          0          0          0
  twoopt           :       0.00       0.00          0          0          0
  undercover       :       1.04       0.00          1          1          1
  vbounds          :       0.00       0.00          0          0          0
  veclendiving     :       9.01       0.00        594          0          0
  zeroobj          :       0.00       0.00          0          0          0
  zirounding       :       0.19       0.00       1000          0          0
  other solutions  :          -          -          -          0          -
Diving (single)    :      Calls      Nodes   LP Iters Backtracks  Conflicts   MinDepth   MaxDepth   AvgDepth  RoundSols  NLeafSols  MinSolDpt  MaxSolDpt  AvgSolDpt
  actconsdiving    :          0          -          -          -          -          -          -          -          -          -          -          -          -
  coefdiving       :          0          -          -          -          -          -          -          -          -          -          -          -          -
  conflictdiving   :        593      10445     112724        643       9769         24         45       32.4          0          2         38         41       39.5
  distributiondivin:        594       7743     233291        830       5442         21         38       27.2          0          -          -          -          -
  farkasdiving     :          0          -          -          -          -          -          -          -          -          -          -          -          -
  fracdiving       :        594      57226     197381        624       4036         28        270      110.8          0          -          -          -          -
  guideddiving     :        594      52125     185402        379       2801         27        228      102.7          0          2         51         54       52.5
  indicatordiving  :          0          -          -          -          -          -          -          -          -          -          -          -          -
  linesearchdiving :        593      13742     174264        746      10959         24         53       37.6          0          -          -          -          -
  pscostdiving     :        593      10923     215344        614       8586         22         45       33.0          0          3         39         45       41.3
  veclendiving     :        594      10837      79240        607      10745         25         49       32.8          0          -          -          -          -
Diving (adaptive)  :      Calls      Nodes   LP Iters Backtracks  Conflicts   MinDepth   MaxDepth   AvgDepth  RoundSols  NLeafSols  MinSolDpt  MaxSolDpt  AvgSolDpt
  actconsdiving    :         18        259       7193         30        174         24         33       28.0          0          -          -          -          -
  coefdiving       :         39        732       6036         40        831         29         42       33.3          0          -          -          -          -
  conflictdiving   :          0          -          -          -          -          -          -          -          -          -          -          -          -
  distributiondivin:          0          -          -          -          -          -          -          -          -          -          -          -          -
  farkasdiving     :          0          -          -          -          -          -          -          -          -          -          -          -          -
  fracdiving       :          4        473       1293          5         24        103        179      133.2          0          -          -          -          -
  guideddiving     :          4        286       1162          4         38         50        106       86.5          0          -          -          -          -
  indicatordiving  :          0          -          -          -          -          -          -          -          -          -          -          -          -
  linesearchdiving :         13        310       3083         16        194         27         50       39.1          0          -          -          -          -
  pscostdiving     :         12        220       4429         12        154         30         36       32.5          0          -          -          -          -
  veclendiving     :         17        304       2013         17        275         30         35       32.5          0          -          -          -          -
Neighborhoods      :      Calls  SetupTime  SolveTime SolveNodes       Sols       Best       Exp3  EpsGreedy        UCB TgtFixRate  Opt  Inf Node Stal  Sol  Usr Othr Actv
  rens             :          2       0.01       0.00          0          0          0    0.00000   -1.00000    0.30451      0.700    0    1    0    0    0    0    1    1
  rins             :          2       0.03       0.01          0          0          0    0.00000   -1.00000    0.30451      0.700    0    1    0    0    0    0    1    1
  mutation         :          9       0.42       0.50        264          3          3    0.00000   -1.00000    0.51566      0.533    2    4    0    3    0    0    0    1
  localbranching   :          3       0.17       0.14         89          0          0    0.00000   -1.00000    0.46572      0.662    0    2    0    1    0    0    0    1
  crossover        :          4       0.20       0.08         25          0          0    0.00000   -1.00000    0.52131      0.353    0    4    0    0    0    0    0    1
  proximity        :         14       0.75       2.34        654          9          5    0.00000   -1.00000    0.52187      0.560    5    3    0    6    0    0    0    1
  zeroobjective    :          3       0.16       0.13         84          0          0    0.00000   -1.00000    0.46572      0.662    0    2    0    1    0    0    0    1
  dins             :          3       0.12       0.01          2          0          0    0.00000   -1.00000    0.37683      0.550    0    2    0    0    0    0    1    1
  trustregion      :          0       0.00       0.00          0          0          0    0.00000   -1.00000    1.00000      0.900    0    0    0    0    0    0    0    0
Expressions        :   #IntEval  IntEvalTi   #RevProp  RevPropTi    DomReds    Cutoffs  #Estimate  EstimTime  Branching  #Simplify SimplifyTi Simplified
  pow              :          0       0.00          0       0.00          0          0          0       0.00          0          0       0.00          0
  prod             :       3540       0.01          0       0.00          0          0          0       0.00          0       2655       0.00          0
  sum              :          8       0.00          2       0.00          0          0          0       0.00          0          3       0.02          2
  var              :       3327       0.00          0       0.00          0          0          0       0.00          0       6378       0.00          0
  varidx           :          0       0.00          0       0.00          0          0          0       0.00          0          0       0.00          0
LP                 :       Time      Calls Iterations  Iter/call   Iter/sec  Time-0-It Calls-0-It    ItLimit
  primal LP        :     142.00      21958          0       0.00       0.00     141.97      21958
  dual LP          :    2686.55     262128   25525765     112.03    9501.32      10.24      34282
  lex dual LP      :       0.00          0          0       0.00          -
  barrier LP       :       0.00          0          0       0.00          -       0.00          0
  resolve instable :       0.00          0          0       0.00          -
  diving/probing LP:     116.66      14350    1591489     110.91   13642.11
  strong branching :      19.64       4322     245117      56.71   12480.50          -          -         99
    (at root node) :          -         19       4593     241.74          -
  conflict analysis:       8.77       8000      79194       9.90    9030.10
NLP relaxation     :
  solve time       :       2.67 (10 calls)
  convexity        :  nonconvex (1 linear rows, 0 convex ineq., 0 nonconvex ineq., 885 nonlinear eq. or two-sided ineq.)
NLP Solvers        :  #Problems  ProblemTi    #Solves  SolveTime      #Iter  Time/Iter      #Okay #TimeLimit #IterLimit #LObjLimit #Interrupt  #NumError #EvalError  #OutOfMem #LicenseEr #OtherTerm   #GlobOpt    #LocOpt  #Feasible #LocInfeas #GlobInfea #Unbounded   #Unknown
  ipopt            :          2       6.58         13       3.86        308       0.01         13          0          0          0          0          0          0          0          0          0          0          0          0          3          0          0         10
B&B Tree           :
  number of runs   :          1
  nodes            :     206360 (109764 internal, 96596 leaves)
  feasible leaves  :         11
  infeas. leaves   :         98
  objective leaves :      96487
  nodes (total)    :     206360 (109764 internal, 96596 leaves)
  nodes left       :      13120
  max depth        :         39
  max depth (total):         39
  backtracks       :      53297 (25.8%)
  early backtracks :          0 (0.0%)
  nodes exc. ref.  :          0 (0.0%)
  delayed cutoffs  :          2
  repropagations   :         64 (223 domain reductions, 0 cutoffs)
  avg switch length:       4.36
  switching time   :     180.49
Estim. Tree Size   :    1489920
Estimation Tree    : 219529 nodes (206408 visited, 109764 internal, 96644 leaves, 13121 open), weight: 0.1207 completed 0.3493
Estimations        :      estim      value      trend resolution     smooth
  wbe              :    1602029          -          -          -          -
  tree-profile     :         -1          -          -          -          -
  gap              :    1470811    0.90815    0.00002        128    1405583
  tree-weight      :    1489921    0.12065    0.00017        128    1492083
  leaf-frequency   :     894641    0.46822    0.00001        128     882913
  ssg              :    1253764    0.51833   -0.00013        128    1264593
  open-nodes       :     412816 13121.00000    2.10849        128     412630
Root Node          :
  First LP value   : -1.00000000000000e+00
  First LP Iters   :        565 (28250.00 Iter/sec)
  First LP Time    :       0.02
  Final Dual Bound : -8.93766623682865e-01
  Final Root Iters :       2814
  Root LP Estimate : -5.40163697466011e-01
Solution           :
  Solutions found  :         61 (45 improvements)
  First Solution   : +1.00000000000000e+05   (in run 1, after 0 nodes, 0.00 seconds, depth 0, found by <trivial>)
  Gap First Sol.   :   infinite
  Gap Last Sol.    :      11.70 %
  Primal Bound     : -5.97740112994351e-01   (in run 1, after 152461 nodes, 2813.17 seconds, depth 22, found by <relaxation>)
  Dual Bound       : -6.58192090395481e-01
  Gap              :      10.11 %
Integrals          :      Total       Avg%
  primal-dual      :   53368.00      14.82
  primal-ref       :          -          - (not evaluated)
  dual-ref         :          -          - (not evaluated)
